(declare-const fee_bl Real)
(declare-const p5_9 Real)
(declare-const p14_05 Real)
(declare-const income Real)
(declare-const special Real)
(declare-const sin Real)
(declare-const p8_6 Real)
(declare-const p12_2 Real)
(assert (= p5_9 (* 0.059 (ite (> income 51964) 51964 income))))
(assert (= p8_6 (ite (> income 51964) (* 0.086 (- (ite (> income 103930) 103930 income) 51964)) 0)))
(assert (= p12_2 (ite (> income 103930) (* 0.122 (- (ite (> income 168967) 168967 income) 103930)) 0)))
(assert (= p14_05 (ite (> income 168967) (* 0.1405 (- income 168967)) 0)))
(assert (= special (ite (>= sin 900000000) 0 1)))
(assert (= fee_bl (* special (+ (+ (+ p5_9 p8_6) p12_2) p14_05))))